\ Model pathplanner
\ LP format - for model browsing. Use MPS format to capture full model detail.
Minimize
  delta_1 + delta_2 + delta_3 + delta_4
Subject To
 c1_1,1,1: x_1,1,1 = 1
 c1_1,2,1: x_1,2,1 = 0
 c1_1,3,1: x_1,3,1 = 0
 c1_1,4,1: x_1,4,1 = 0
 c1_2,1,1: x_2,1,1 = 0
 c1_2,2,1: x_2,2,1 = 1
 c1_2,3,1: x_2,3,1 = 0
 c1_2,4,1: x_2,4,1 = 0
 c2_1,2: x_1,1,2 + x_1,2,2 + x_1,3,2 + x_1,4,2 = 1
 c2_1,3: x_1,1,3 + x_1,2,3 + x_1,3,3 + x_1,4,3 = 1
 c2_1,4: x_1,1,4 + x_1,2,4 + x_1,3,4 + x_1,4,4 = 1
 c2_2,2: x_2,1,2 + x_2,2,2 + x_2,3,2 + x_2,4,2 = 1
 c2_2,3: x_2,1,3 + x_2,2,3 + x_2,3,3 + x_2,4,3 = 1
 c2_2,4: x_2,1,4 + x_2,2,4 + x_2,3,4 + x_2,4,4 = 1
 c3_1: x_1,4,1 + x_1,4,2 + x_1,4,3 + x_1,4,4 >= 1
 c3_2: x_2,4,1 + x_2,4,2 + x_2,4,3 + x_2,4,4 >= 1
 c4_1: 2 delta_1 + x_1,4,1 + x_2,4,1 >= 2
 c4_2: 2 delta_2 + x_1,4,2 + x_2,4,2 >= 2
 c4_3: 2 delta_3 + x_1,4,3 + x_2,4,3 >= 2
 c4_4: 2 delta_4 + x_1,4,4 + x_2,4,4 >= 2
 c5a_1,1: e_1,1,1,1 + e_1,1,3,1 <= 1
 c5b_1,1: e_1,4,4,1 + e_1,3,4,1 + e_1,4,3,1 + e_1,3,1,1 + e_1,2,3,1
   + e_1,3,3,1 + e_1,2,2,1 + e_1,3,2,1 = 0
 c5a_2,2: e_2,2,3,1 + e_2,2,2,1 <= 1
 c5b_2,2: e_2,4,4,1 + e_2,3,4,1 + e_2,4,3,1 + e_2,3,1,1 + e_2,1,1,1
   + e_2,3,3,1 + e_2,3,2,1 + e_2,1,3,1 = 0
 c6_1,2: e_1,4,4,2 + e_1,3,4,2 + e_1,4,3,2 + e_1,3,1,2 + e_1,1,1,2
   + e_1,2,3,2 + e_1,3,3,2 + e_1,2,2,2 + e_1,3,2,2 + e_1,1,3,2 = 1
 c6_1,3: e_1,4,4,3 + e_1,3,4,3 + e_1,4,3,3 + e_1,3,1,3 + e_1,1,1,3
   + e_1,2,3,3 + e_1,3,3,3 + e_1,2,2,3 + e_1,3,2,3 + e_1,1,3,3 = 1
 c6_2,2: e_2,4,4,2 + e_2,3,4,2 + e_2,4,3,2 + e_2,3,1,2 + e_2,1,1,2
   + e_2,2,3,2 + e_2,3,3,2 + e_2,2,2,2 + e_2,3,2,2 + e_2,1,3,2 = 1
 c6_2,3: e_2,4,4,3 + e_2,3,4,3 + e_2,4,3,3 + e_2,3,1,3 + e_2,1,1,3
   + e_2,2,3,3 + e_2,3,3,3 + e_2,2,2,3 + e_2,3,2,3 + e_2,1,3,3 = 1
 c7_1,1,2: - e_1,3,1,1 - e_1,1,1,1 + e_1,1,1,2 + e_1,1,3,2 = 0
 c7_1,1,3: - e_1,3,1,2 - e_1,1,1,2 + e_1,1,1,3 + e_1,1,3,3 = 0
 c7_1,2,2: e_1,2,3,2 - e_1,2,2,1 + e_1,2,2,2 - e_1,3,2,1 = 0
 c7_1,2,3: e_1,2,3,3 - e_1,2,2,2 + e_1,2,2,3 - e_1,3,2,2 = 0
 c7_1,3,2: e_1,3,4,2 - e_1,4,3,1 + e_1,3,1,2 - e_1,2,3,1 - e_1,3,3,1
   + e_1,3,3,2 + e_1,3,2,2 - e_1,1,3,1 = 0
 c7_1,3,3: e_1,3,4,3 - e_1,4,3,2 + e_1,3,1,3 - e_1,2,3,2 - e_1,3,3,2
   + e_1,3,3,3 + e_1,3,2,3 - e_1,1,3,2 = 0
 c7_1,4,2: - e_1,4,4,1 + e_1,4,4,2 - e_1,3,4,1 + e_1,4,3,2 = 0
 c7_1,4,3: - e_1,4,4,2 + e_1,4,4,3 - e_1,3,4,2 + e_1,4,3,3 = 0
 c7_2,1,2: - e_2,3,1,1 - e_2,1,1,1 + e_2,1,1,2 + e_2,1,3,2 = 0
 c7_2,1,3: - e_2,3,1,2 - e_2,1,1,2 + e_2,1,1,3 + e_2,1,3,3 = 0
 c7_2,2,2: e_2,2,3,2 - e_2,2,2,1 + e_2,2,2,2 - e_2,3,2,1 = 0
 c7_2,2,3: e_2,2,3,3 - e_2,2,2,2 + e_2,2,2,3 - e_2,3,2,2 = 0
 c7_2,3,2: e_2,3,4,2 - e_2,4,3,1 + e_2,3,1,2 - e_2,2,3,1 - e_2,3,3,1
   + e_2,3,3,2 + e_2,3,2,2 - e_2,1,3,1 = 0
 c7_2,3,3: e_2,3,4,3 - e_2,4,3,2 + e_2,3,1,3 - e_2,2,3,2 - e_2,3,3,2
   + e_2,3,3,3 + e_2,3,2,3 - e_2,1,3,2 = 0
 c7_2,4,2: - e_2,4,4,1 + e_2,4,4,2 - e_2,3,4,1 + e_2,4,3,2 = 0
 c7_2,4,3: - e_2,4,4,2 + e_2,4,4,3 - e_2,3,4,2 + e_2,4,3,3 = 0
 c8_1,1: p_1,1,1 + p_1,2,1 <= 1
 c8_1,2: p_1,1,2 + p_1,2,2 <= 1
 c8_1,3: p_1,1,3 + p_1,2,3 <= 1
 c8_2,1: p_2,1,1 + p_2,2,1 <= 1
 c8_2,2: p_2,1,2 + p_2,2,2 <= 1
 c8_2,3: p_2,1,3 + p_2,2,3 <= 1
 c9a_1,3,4,1: x_1,3,1 + x_1,4,2 - p_1,1,1 - p_1,2,1 <= 1
 c9b_1,1,3,4,1: - e_1,3,4,1 + x_1,3,1 + x_1,4,2 + p_1,1,1 <= 2
 c9c_1,1,3,4,1: e_1,3,4,1 - x_1,3,1 + p_1,1,1 <= 1
 c9d_1,1,3,4,1: e_1,3,4,1 - x_1,4,2 + p_1,1,1 <= 1
 c9b_1,2,3,4,1: - e_2,3,4,1 + x_1,3,1 + x_1,4,2 + p_1,2,1 <= 2
 c9c_1,2,3,4,1: e_2,3,4,1 - x_1,3,1 + p_1,2,1 <= 1
 c9d_1,2,3,4,1: e_2,3,4,1 - x_1,4,2 + p_1,2,1 <= 1
 c9a_1,3,4,2: x_1,3,2 + x_1,4,3 - p_1,1,2 - p_1,2,2 <= 1
 c9b_1,1,3,4,2: - e_1,3,4,2 + x_1,3,2 + x_1,4,3 + p_1,1,2 <= 2
 c9c_1,1,3,4,2: e_1,3,4,2 - x_1,3,2 + p_1,1,2 <= 1
 c9d_1,1,3,4,2: e_1,3,4,2 - x_1,4,3 + p_1,1,2 <= 1
 c9b_1,2,3,4,2: - e_2,3,4,2 + x_1,3,2 + x_1,4,3 + p_1,2,2 <= 2
 c9c_1,2,3,4,2: e_2,3,4,2 - x_1,3,2 + p_1,2,2 <= 1
 c9d_1,2,3,4,2: e_2,3,4,2 - x_1,4,3 + p_1,2,2 <= 1
 c9a_1,3,4,3: x_1,3,3 + x_1,4,4 - p_1,1,3 - p_1,2,3 <= 1
 c9b_1,1,3,4,3: - e_1,3,4,3 + x_1,3,3 + x_1,4,4 + p_1,1,3 <= 2
 c9c_1,1,3,4,3: e_1,3,4,3 - x_1,3,3 + p_1,1,3 <= 1
 c9d_1,1,3,4,3: e_1,3,4,3 - x_1,4,4 + p_1,1,3 <= 1
 c9b_1,2,3,4,3: - e_2,3,4,3 + x_1,3,3 + x_1,4,4 + p_1,2,3 <= 2
 c9c_1,2,3,4,3: e_2,3,4,3 - x_1,3,3 + p_1,2,3 <= 1
 c9d_1,2,3,4,3: e_2,3,4,3 - x_1,4,4 + p_1,2,3 <= 1
 c9a_1,4,3,1: x_1,3,2 + x_1,4,1 - p_1,1,1 - p_1,2,1 <= 1
 c9b_1,1,4,3,1: - e_1,4,3,1 + x_1,3,2 + x_1,4,1 + p_1,1,1 <= 2
 c9c_1,1,4,3,1: e_1,4,3,1 - x_1,4,1 + p_1,1,1 <= 1
 c9d_1,1,4,3,1: e_1,4,3,1 - x_1,3,2 + p_1,1,1 <= 1
 c9b_1,2,4,3,1: - e_2,4,3,1 + x_1,3,2 + x_1,4,1 + p_1,2,1 <= 2
 c9c_1,2,4,3,1: e_2,4,3,1 - x_1,4,1 + p_1,2,1 <= 1
 c9d_1,2,4,3,1: e_2,4,3,1 - x_1,3,2 + p_1,2,1 <= 1
 c9a_1,4,3,2: x_1,3,3 + x_1,4,2 - p_1,1,2 - p_1,2,2 <= 1
 c9b_1,1,4,3,2: - e_1,4,3,2 + x_1,3,3 + x_1,4,2 + p_1,1,2 <= 2
 c9c_1,1,4,3,2: e_1,4,3,2 - x_1,4,2 + p_1,1,2 <= 1
 c9d_1,1,4,3,2: e_1,4,3,2 - x_1,3,3 + p_1,1,2 <= 1
 c9b_1,2,4,3,2: - e_2,4,3,2 + x_1,3,3 + x_1,4,2 + p_1,2,2 <= 2
 c9c_1,2,4,3,2: e_2,4,3,2 - x_1,4,2 + p_1,2,2 <= 1
 c9d_1,2,4,3,2: e_2,4,3,2 - x_1,3,3 + p_1,2,2 <= 1
 c9a_1,4,3,3: x_1,3,4 + x_1,4,3 - p_1,1,3 - p_1,2,3 <= 1
 c9b_1,1,4,3,3: - e_1,4,3,3 + x_1,3,4 + x_1,4,3 + p_1,1,3 <= 2
 c9c_1,1,4,3,3: e_1,4,3,3 - x_1,4,3 + p_1,1,3 <= 1
 c9d_1,1,4,3,3: e_1,4,3,3 - x_1,3,4 + p_1,1,3 <= 1
 c9b_1,2,4,3,3: - e_2,4,3,3 + x_1,3,4 + x_1,4,3 + p_1,2,3 <= 2
 c9c_1,2,4,3,3: e_2,4,3,3 - x_1,4,3 + p_1,2,3 <= 1
 c9d_1,2,4,3,3: e_2,4,3,3 - x_1,3,4 + p_1,2,3 <= 1
 c9a_1,3,1,1: x_1,1,2 + x_1,3,1 - p_1,1,1 - p_1,2,1 <= 1
 c9b_1,1,3,1,1: - e_1,3,1,1 + x_1,1,2 + x_1,3,1 + p_1,1,1 <= 2
 c9c_1,1,3,1,1: e_1,3,1,1 - x_1,3,1 + p_1,1,1 <= 1
 c9d_1,1,3,1,1: e_1,3,1,1 - x_1,1,2 + p_1,1,1 <= 1
 c9b_1,2,3,1,1: - e_2,3,1,1 + x_1,1,2 + x_1,3,1 + p_1,2,1 <= 2
 c9c_1,2,3,1,1: e_2,3,1,1 - x_1,3,1 + p_1,2,1 <= 1
 c9d_1,2,3,1,1: e_2,3,1,1 - x_1,1,2 + p_1,2,1 <= 1
 c9a_1,3,1,2: x_1,1,3 + x_1,3,2 - p_1,1,2 - p_1,2,2 <= 1
 c9b_1,1,3,1,2: - e_1,3,1,2 + x_1,1,3 + x_1,3,2 + p_1,1,2 <= 2
 c9c_1,1,3,1,2: e_1,3,1,2 - x_1,3,2 + p_1,1,2 <= 1
 c9d_1,1,3,1,2: e_1,3,1,2 - x_1,1,3 + p_1,1,2 <= 1
 c9b_1,2,3,1,2: - e_2,3,1,2 + x_1,1,3 + x_1,3,2 + p_1,2,2 <= 2
 c9c_1,2,3,1,2: e_2,3,1,2 - x_1,3,2 + p_1,2,2 <= 1
 c9d_1,2,3,1,2: e_2,3,1,2 - x_1,1,3 + p_1,2,2 <= 1
 c9a_1,3,1,3: x_1,1,4 + x_1,3,3 - p_1,1,3 - p_1,2,3 <= 1
 c9b_1,1,3,1,3: - e_1,3,1,3 + x_1,1,4 + x_1,3,3 + p_1,1,3 <= 2
 c9c_1,1,3,1,3: e_1,3,1,3 - x_1,3,3 + p_1,1,3 <= 1
 c9d_1,1,3,1,3: e_1,3,1,3 - x_1,1,4 + p_1,1,3 <= 1
 c9b_1,2,3,1,3: - e_2,3,1,3 + x_1,1,4 + x_1,3,3 + p_1,2,3 <= 2
 c9c_1,2,3,1,3: e_2,3,1,3 - x_1,3,3 + p_1,2,3 <= 1
 c9d_1,2,3,1,3: e_2,3,1,3 - x_1,1,4 + p_1,2,3 <= 1
 c9a_1,2,3,1: x_1,2,1 + x_1,3,2 - p_1,1,1 - p_1,2,1 <= 1
 c9b_1,1,2,3,1: - e_1,2,3,1 + x_1,2,1 + x_1,3,2 + p_1,1,1 <= 2
 c9c_1,1,2,3,1: e_1,2,3,1 - x_1,2,1 + p_1,1,1 <= 1
 c9d_1,1,2,3,1: e_1,2,3,1 - x_1,3,2 + p_1,1,1 <= 1
 c9b_1,2,2,3,1: - e_2,2,3,1 + x_1,2,1 + x_1,3,2 + p_1,2,1 <= 2
 c9c_1,2,2,3,1: e_2,2,3,1 - x_1,2,1 + p_1,2,1 <= 1
 c9d_1,2,2,3,1: e_2,2,3,1 - x_1,3,2 + p_1,2,1 <= 1
 c9a_1,2,3,2: x_1,2,2 + x_1,3,3 - p_1,1,2 - p_1,2,2 <= 1
 c9b_1,1,2,3,2: - e_1,2,3,2 + x_1,2,2 + x_1,3,3 + p_1,1,2 <= 2
 c9c_1,1,2,3,2: e_1,2,3,2 - x_1,2,2 + p_1,1,2 <= 1
 c9d_1,1,2,3,2: e_1,2,3,2 - x_1,3,3 + p_1,1,2 <= 1
 c9b_1,2,2,3,2: - e_2,2,3,2 + x_1,2,2 + x_1,3,3 + p_1,2,2 <= 2
 c9c_1,2,2,3,2: e_2,2,3,2 - x_1,2,2 + p_1,2,2 <= 1
 c9d_1,2,2,3,2: e_2,2,3,2 - x_1,3,3 + p_1,2,2 <= 1
 c9a_1,2,3,3: x_1,2,3 + x_1,3,4 - p_1,1,3 - p_1,2,3 <= 1
 c9b_1,1,2,3,3: - e_1,2,3,3 + x_1,2,3 + x_1,3,4 + p_1,1,3 <= 2
 c9c_1,1,2,3,3: e_1,2,3,3 - x_1,2,3 + p_1,1,3 <= 1
 c9d_1,1,2,3,3: e_1,2,3,3 - x_1,3,4 + p_1,1,3 <= 1
 c9b_1,2,2,3,3: - e_2,2,3,3 + x_1,2,3 + x_1,3,4 + p_1,2,3 <= 2
 c9c_1,2,2,3,3: e_2,2,3,3 - x_1,2,3 + p_1,2,3 <= 1
 c9d_1,2,2,3,3: e_2,2,3,3 - x_1,3,4 + p_1,2,3 <= 1
 c9a_1,3,2,1: x_1,2,2 + x_1,3,1 - p_1,1,1 - p_1,2,1 <= 1
 c9b_1,1,3,2,1: - e_1,3,2,1 + x_1,2,2 + x_1,3,1 + p_1,1,1 <= 2
 c9c_1,1,3,2,1: e_1,3,2,1 - x_1,3,1 + p_1,1,1 <= 1
 c9d_1,1,3,2,1: e_1,3,2,1 - x_1,2,2 + p_1,1,1 <= 1
 c9b_1,2,3,2,1: - e_2,3,2,1 + x_1,2,2 + x_1,3,1 + p_1,2,1 <= 2
 c9c_1,2,3,2,1: e_2,3,2,1 - x_1,3,1 + p_1,2,1 <= 1
 c9d_1,2,3,2,1: e_2,3,2,1 - x_1,2,2 + p_1,2,1 <= 1
 c9a_1,3,2,2: x_1,2,3 + x_1,3,2 - p_1,1,2 - p_1,2,2 <= 1
 c9b_1,1,3,2,2: - e_1,3,2,2 + x_1,2,3 + x_1,3,2 + p_1,1,2 <= 2
 c9c_1,1,3,2,2: e_1,3,2,2 - x_1,3,2 + p_1,1,2 <= 1
 c9d_1,1,3,2,2: e_1,3,2,2 - x_1,2,3 + p_1,1,2 <= 1
 c9b_1,2,3,2,2: - e_2,3,2,2 + x_1,2,3 + x_1,3,2 + p_1,2,2 <= 2
 c9c_1,2,3,2,2: e_2,3,2,2 - x_1,3,2 + p_1,2,2 <= 1
 c9d_1,2,3,2,2: e_2,3,2,2 - x_1,2,3 + p_1,2,2 <= 1
 c9a_1,3,2,3: x_1,2,4 + x_1,3,3 - p_1,1,3 - p_1,2,3 <= 1
 c9b_1,1,3,2,3: - e_1,3,2,3 + x_1,2,4 + x_1,3,3 + p_1,1,3 <= 2
 c9c_1,1,3,2,3: e_1,3,2,3 - x_1,3,3 + p_1,1,3 <= 1
 c9d_1,1,3,2,3: e_1,3,2,3 - x_1,2,4 + p_1,1,3 <= 1
 c9b_1,2,3,2,3: - e_2,3,2,3 + x_1,2,4 + x_1,3,3 + p_1,2,3 <= 2
 c9c_1,2,3,2,3: e_2,3,2,3 - x_1,3,3 + p_1,2,3 <= 1
 c9d_1,2,3,2,3: e_2,3,2,3 - x_1,2,4 + p_1,2,3 <= 1
 c9a_1,1,3,1: x_1,1,1 + x_1,3,2 - p_1,1,1 - p_1,2,1 <= 1
 c9b_1,1,1,3,1: - e_1,1,3,1 + x_1,1,1 + x_1,3,2 + p_1,1,1 <= 2
 c9c_1,1,1,3,1: e_1,1,3,1 - x_1,1,1 + p_1,1,1 <= 1
 c9d_1,1,1,3,1: e_1,1,3,1 - x_1,3,2 + p_1,1,1 <= 1
 c9b_1,2,1,3,1: - e_2,1,3,1 + x_1,1,1 + x_1,3,2 + p_1,2,1 <= 2
 c9c_1,2,1,3,1: e_2,1,3,1 - x_1,1,1 + p_1,2,1 <= 1
 c9d_1,2,1,3,1: e_2,1,3,1 - x_1,3,2 + p_1,2,1 <= 1
 c9a_1,1,3,2: x_1,1,2 + x_1,3,3 - p_1,1,2 - p_1,2,2 <= 1
 c9b_1,1,1,3,2: - e_1,1,3,2 + x_1,1,2 + x_1,3,3 + p_1,1,2 <= 2
 c9c_1,1,1,3,2: e_1,1,3,2 - x_1,1,2 + p_1,1,2 <= 1
 c9d_1,1,1,3,2: e_1,1,3,2 - x_1,3,3 + p_1,1,2 <= 1
 c9b_1,2,1,3,2: - e_2,1,3,2 + x_1,1,2 + x_1,3,3 + p_1,2,2 <= 2
 c9c_1,2,1,3,2: e_2,1,3,2 - x_1,1,2 + p_1,2,2 <= 1
 c9d_1,2,1,3,2: e_2,1,3,2 - x_1,3,3 + p_1,2,2 <= 1
 c9a_1,1,3,3: x_1,1,3 + x_1,3,4 - p_1,1,3 - p_1,2,3 <= 1
 c9b_1,1,1,3,3: - e_1,1,3,3 + x_1,1,3 + x_1,3,4 + p_1,1,3 <= 2
 c9c_1,1,1,3,3: e_1,1,3,3 - x_1,1,3 + p_1,1,3 <= 1
 c9d_1,1,1,3,3: e_1,1,3,3 - x_1,3,4 + p_1,1,3 <= 1
 c9b_1,2,1,3,3: - e_2,1,3,3 + x_1,1,3 + x_1,3,4 + p_1,2,3 <= 2
 c9c_1,2,1,3,3: e_2,1,3,3 - x_1,1,3 + p_1,2,3 <= 1
 c9d_1,2,1,3,3: e_2,1,3,3 - x_1,3,4 + p_1,2,3 <= 1
 c9a_2,3,4,1: x_2,3,1 + x_2,4,2 - p_2,1,1 - p_2,2,1 <= 1
 c9b_2,1,3,4,1: - e_1,3,4,1 + x_2,3,1 + x_2,4,2 + p_2,1,1 <= 2
 c9c_2,1,3,4,1: e_1,3,4,1 - x_2,3,1 + p_2,1,1 <= 1
 c9d_2,1,3,4,1: e_1,3,4,1 - x_2,4,2 + p_2,1,1 <= 1
 c9b_2,2,3,4,1: - e_2,3,4,1 + x_2,3,1 + x_2,4,2 + p_2,2,1 <= 2
 c9c_2,2,3,4,1: e_2,3,4,1 - x_2,3,1 + p_2,2,1 <= 1
 c9d_2,2,3,4,1: e_2,3,4,1 - x_2,4,2 + p_2,2,1 <= 1
 c9a_2,3,4,2: x_2,3,2 + x_2,4,3 - p_2,1,2 - p_2,2,2 <= 1
 c9b_2,1,3,4,2: - e_1,3,4,2 + x_2,3,2 + x_2,4,3 + p_2,1,2 <= 2
 c9c_2,1,3,4,2: e_1,3,4,2 - x_2,3,2 + p_2,1,2 <= 1
 c9d_2,1,3,4,2: e_1,3,4,2 - x_2,4,3 + p_2,1,2 <= 1
 c9b_2,2,3,4,2: - e_2,3,4,2 + x_2,3,2 + x_2,4,3 + p_2,2,2 <= 2
 c9c_2,2,3,4,2: e_2,3,4,2 - x_2,3,2 + p_2,2,2 <= 1
 c9d_2,2,3,4,2: e_2,3,4,2 - x_2,4,3 + p_2,2,2 <= 1
 c9a_2,3,4,3: x_2,3,3 + x_2,4,4 - p_2,1,3 - p_2,2,3 <= 1
 c9b_2,1,3,4,3: - e_1,3,4,3 + x_2,3,3 + x_2,4,4 + p_2,1,3 <= 2
 c9c_2,1,3,4,3: e_1,3,4,3 - x_2,3,3 + p_2,1,3 <= 1
 c9d_2,1,3,4,3: e_1,3,4,3 - x_2,4,4 + p_2,1,3 <= 1
 c9b_2,2,3,4,3: - e_2,3,4,3 + x_2,3,3 + x_2,4,4 + p_2,2,3 <= 2
 c9c_2,2,3,4,3: e_2,3,4,3 - x_2,3,3 + p_2,2,3 <= 1
 c9d_2,2,3,4,3: e_2,3,4,3 - x_2,4,4 + p_2,2,3 <= 1
 c9a_2,4,3,1: x_2,3,2 + x_2,4,1 - p_2,1,1 - p_2,2,1 <= 1
 c9b_2,1,4,3,1: - e_1,4,3,1 + x_2,3,2 + x_2,4,1 + p_2,1,1 <= 2
 c9c_2,1,4,3,1: e_1,4,3,1 - x_2,4,1 + p_2,1,1 <= 1
 c9d_2,1,4,3,1: e_1,4,3,1 - x_2,3,2 + p_2,1,1 <= 1
 c9b_2,2,4,3,1: - e_2,4,3,1 + x_2,3,2 + x_2,4,1 + p_2,2,1 <= 2
 c9c_2,2,4,3,1: e_2,4,3,1 - x_2,4,1 + p_2,2,1 <= 1
 c9d_2,2,4,3,1: e_2,4,3,1 - x_2,3,2 + p_2,2,1 <= 1
 c9a_2,4,3,2: x_2,3,3 + x_2,4,2 - p_2,1,2 - p_2,2,2 <= 1
 c9b_2,1,4,3,2: - e_1,4,3,2 + x_2,3,3 + x_2,4,2 + p_2,1,2 <= 2
 c9c_2,1,4,3,2: e_1,4,3,2 - x_2,4,2 + p_2,1,2 <= 1
 c9d_2,1,4,3,2: e_1,4,3,2 - x_2,3,3 + p_2,1,2 <= 1
 c9b_2,2,4,3,2: - e_2,4,3,2 + x_2,3,3 + x_2,4,2 + p_2,2,2 <= 2
 c9c_2,2,4,3,2: e_2,4,3,2 - x_2,4,2 + p_2,2,2 <= 1
 c9d_2,2,4,3,2: e_2,4,3,2 - x_2,3,3 + p_2,2,2 <= 1
 c9a_2,4,3,3: x_2,3,4 + x_2,4,3 - p_2,1,3 - p_2,2,3 <= 1
 c9b_2,1,4,3,3: - e_1,4,3,3 + x_2,3,4 + x_2,4,3 + p_2,1,3 <= 2
 c9c_2,1,4,3,3: e_1,4,3,3 - x_2,4,3 + p_2,1,3 <= 1
 c9d_2,1,4,3,3: e_1,4,3,3 - x_2,3,4 + p_2,1,3 <= 1
 c9b_2,2,4,3,3: - e_2,4,3,3 + x_2,3,4 + x_2,4,3 + p_2,2,3 <= 2
 c9c_2,2,4,3,3: e_2,4,3,3 - x_2,4,3 + p_2,2,3 <= 1
 c9d_2,2,4,3,3: e_2,4,3,3 - x_2,3,4 + p_2,2,3 <= 1
 c9a_2,3,1,1: x_2,1,2 + x_2,3,1 - p_2,1,1 - p_2,2,1 <= 1
 c9b_2,1,3,1,1: - e_1,3,1,1 + x_2,1,2 + x_2,3,1 + p_2,1,1 <= 2
 c9c_2,1,3,1,1: e_1,3,1,1 - x_2,3,1 + p_2,1,1 <= 1
 c9d_2,1,3,1,1: e_1,3,1,1 - x_2,1,2 + p_2,1,1 <= 1
 c9b_2,2,3,1,1: - e_2,3,1,1 + x_2,1,2 + x_2,3,1 + p_2,2,1 <= 2
 c9c_2,2,3,1,1: e_2,3,1,1 - x_2,3,1 + p_2,2,1 <= 1
 c9d_2,2,3,1,1: e_2,3,1,1 - x_2,1,2 + p_2,2,1 <= 1
 c9a_2,3,1,2: x_2,1,3 + x_2,3,2 - p_2,1,2 - p_2,2,2 <= 1
 c9b_2,1,3,1,2: - e_1,3,1,2 + x_2,1,3 + x_2,3,2 + p_2,1,2 <= 2
 c9c_2,1,3,1,2: e_1,3,1,2 - x_2,3,2 + p_2,1,2 <= 1
 c9d_2,1,3,1,2: e_1,3,1,2 - x_2,1,3 + p_2,1,2 <= 1
 c9b_2,2,3,1,2: - e_2,3,1,2 + x_2,1,3 + x_2,3,2 + p_2,2,2 <= 2
 c9c_2,2,3,1,2: e_2,3,1,2 - x_2,3,2 + p_2,2,2 <= 1
 c9d_2,2,3,1,2: e_2,3,1,2 - x_2,1,3 + p_2,2,2 <= 1
 c9a_2,3,1,3: x_2,1,4 + x_2,3,3 - p_2,1,3 - p_2,2,3 <= 1
 c9b_2,1,3,1,3: - e_1,3,1,3 + x_2,1,4 + x_2,3,3 + p_2,1,3 <= 2
 c9c_2,1,3,1,3: e_1,3,1,3 - x_2,3,3 + p_2,1,3 <= 1
 c9d_2,1,3,1,3: e_1,3,1,3 - x_2,1,4 + p_2,1,3 <= 1
 c9b_2,2,3,1,3: - e_2,3,1,3 + x_2,1,4 + x_2,3,3 + p_2,2,3 <= 2
 c9c_2,2,3,1,3: e_2,3,1,3 - x_2,3,3 + p_2,2,3 <= 1
 c9d_2,2,3,1,3: e_2,3,1,3 - x_2,1,4 + p_2,2,3 <= 1
 c9a_2,2,3,1: x_2,2,1 + x_2,3,2 - p_2,1,1 - p_2,2,1 <= 1
 c9b_2,1,2,3,1: - e_1,2,3,1 + x_2,2,1 + x_2,3,2 + p_2,1,1 <= 2
 c9c_2,1,2,3,1: e_1,2,3,1 - x_2,2,1 + p_2,1,1 <= 1
 c9d_2,1,2,3,1: e_1,2,3,1 - x_2,3,2 + p_2,1,1 <= 1
 c9b_2,2,2,3,1: - e_2,2,3,1 + x_2,2,1 + x_2,3,2 + p_2,2,1 <= 2
 c9c_2,2,2,3,1: e_2,2,3,1 - x_2,2,1 + p_2,2,1 <= 1
 c9d_2,2,2,3,1: e_2,2,3,1 - x_2,3,2 + p_2,2,1 <= 1
 c9a_2,2,3,2: x_2,2,2 + x_2,3,3 - p_2,1,2 - p_2,2,2 <= 1
 c9b_2,1,2,3,2: - e_1,2,3,2 + x_2,2,2 + x_2,3,3 + p_2,1,2 <= 2
 c9c_2,1,2,3,2: e_1,2,3,2 - x_2,2,2 + p_2,1,2 <= 1
 c9d_2,1,2,3,2: e_1,2,3,2 - x_2,3,3 + p_2,1,2 <= 1
 c9b_2,2,2,3,2: - e_2,2,3,2 + x_2,2,2 + x_2,3,3 + p_2,2,2 <= 2
 c9c_2,2,2,3,2: e_2,2,3,2 - x_2,2,2 + p_2,2,2 <= 1
 c9d_2,2,2,3,2: e_2,2,3,2 - x_2,3,3 + p_2,2,2 <= 1
 c9a_2,2,3,3: x_2,2,3 + x_2,3,4 - p_2,1,3 - p_2,2,3 <= 1
 c9b_2,1,2,3,3: - e_1,2,3,3 + x_2,2,3 + x_2,3,4 + p_2,1,3 <= 2
 c9c_2,1,2,3,3: e_1,2,3,3 - x_2,2,3 + p_2,1,3 <= 1
 c9d_2,1,2,3,3: e_1,2,3,3 - x_2,3,4 + p_2,1,3 <= 1
 c9b_2,2,2,3,3: - e_2,2,3,3 + x_2,2,3 + x_2,3,4 + p_2,2,3 <= 2
 c9c_2,2,2,3,3: e_2,2,3,3 - x_2,2,3 + p_2,2,3 <= 1
 c9d_2,2,2,3,3: e_2,2,3,3 - x_2,3,4 + p_2,2,3 <= 1
 c9a_2,3,2,1: x_2,2,2 + x_2,3,1 - p_2,1,1 - p_2,2,1 <= 1
 c9b_2,1,3,2,1: - e_1,3,2,1 + x_2,2,2 + x_2,3,1 + p_2,1,1 <= 2
 c9c_2,1,3,2,1: e_1,3,2,1 - x_2,3,1 + p_2,1,1 <= 1
 c9d_2,1,3,2,1: e_1,3,2,1 - x_2,2,2 + p_2,1,1 <= 1
 c9b_2,2,3,2,1: - e_2,3,2,1 + x_2,2,2 + x_2,3,1 + p_2,2,1 <= 2
 c9c_2,2,3,2,1: e_2,3,2,1 - x_2,3,1 + p_2,2,1 <= 1
 c9d_2,2,3,2,1: e_2,3,2,1 - x_2,2,2 + p_2,2,1 <= 1
 c9a_2,3,2,2: x_2,2,3 + x_2,3,2 - p_2,1,2 - p_2,2,2 <= 1
 c9b_2,1,3,2,2: - e_1,3,2,2 + x_2,2,3 + x_2,3,2 + p_2,1,2 <= 2
 c9c_2,1,3,2,2: e_1,3,2,2 - x_2,3,2 + p_2,1,2 <= 1
 c9d_2,1,3,2,2: e_1,3,2,2 - x_2,2,3 + p_2,1,2 <= 1
 c9b_2,2,3,2,2: - e_2,3,2,2 + x_2,2,3 + x_2,3,2 + p_2,2,2 <= 2
 c9c_2,2,3,2,2: e_2,3,2,2 - x_2,3,2 + p_2,2,2 <= 1
 c9d_2,2,3,2,2: e_2,3,2,2 - x_2,2,3 + p_2,2,2 <= 1
 c9a_2,3,2,3: x_2,2,4 + x_2,3,3 - p_2,1,3 - p_2,2,3 <= 1
 c9b_2,1,3,2,3: - e_1,3,2,3 + x_2,2,4 + x_2,3,3 + p_2,1,3 <= 2
 c9c_2,1,3,2,3: e_1,3,2,3 - x_2,3,3 + p_2,1,3 <= 1
 c9d_2,1,3,2,3: e_1,3,2,3 - x_2,2,4 + p_2,1,3 <= 1
 c9b_2,2,3,2,3: - e_2,3,2,3 + x_2,2,4 + x_2,3,3 + p_2,2,3 <= 2
 c9c_2,2,3,2,3: e_2,3,2,3 - x_2,3,3 + p_2,2,3 <= 1
 c9d_2,2,3,2,3: e_2,3,2,3 - x_2,2,4 + p_2,2,3 <= 1
 c9a_2,1,3,1: x_2,1,1 + x_2,3,2 - p_2,1,1 - p_2,2,1 <= 1
 c9b_2,1,1,3,1: - e_1,1,3,1 + x_2,1,1 + x_2,3,2 + p_2,1,1 <= 2
 c9c_2,1,1,3,1: e_1,1,3,1 - x_2,1,1 + p_2,1,1 <= 1
 c9d_2,1,1,3,1: e_1,1,3,1 - x_2,3,2 + p_2,1,1 <= 1
 c9b_2,2,1,3,1: - e_2,1,3,1 + x_2,1,1 + x_2,3,2 + p_2,2,1 <= 2
 c9c_2,2,1,3,1: e_2,1,3,1 - x_2,1,1 + p_2,2,1 <= 1
 c9d_2,2,1,3,1: e_2,1,3,1 - x_2,3,2 + p_2,2,1 <= 1
 c9a_2,1,3,2: x_2,1,2 + x_2,3,3 - p_2,1,2 - p_2,2,2 <= 1
 c9b_2,1,1,3,2: - e_1,1,3,2 + x_2,1,2 + x_2,3,3 + p_2,1,2 <= 2
 c9c_2,1,1,3,2: e_1,1,3,2 - x_2,1,2 + p_2,1,2 <= 1
 c9d_2,1,1,3,2: e_1,1,3,2 - x_2,3,3 + p_2,1,2 <= 1
 c9b_2,2,1,3,2: - e_2,1,3,2 + x_2,1,2 + x_2,3,3 + p_2,2,2 <= 2
 c9c_2,2,1,3,2: e_2,1,3,2 - x_2,1,2 + p_2,2,2 <= 1
 c9d_2,2,1,3,2: e_2,1,3,2 - x_2,3,3 + p_2,2,2 <= 1
 c9a_2,1,3,3: x_2,1,3 + x_2,3,4 - p_2,1,3 - p_2,2,3 <= 1
 c9b_2,1,1,3,3: - e_1,1,3,3 + x_2,1,3 + x_2,3,4 + p_2,1,3 <= 2
 c9c_2,1,1,3,3: e_1,1,3,3 - x_2,1,3 + p_2,1,3 <= 1
 c9d_2,1,1,3,3: e_1,1,3,3 - x_2,3,4 + p_2,1,3 <= 1
 c9b_2,2,1,3,3: - e_2,1,3,3 + x_2,1,3 + x_2,3,4 + p_2,2,3 <= 2
 c9c_2,2,1,3,3: e_2,1,3,3 - x_2,1,3 + p_2,2,3 <= 1
 c9d_2,2,1,3,3: e_2,1,3,3 - x_2,3,4 + p_2,2,3 <= 1
 c10_1,1,21: x_1,1,1 + x_1,2,2 <= 1
 c10_1,1,41: x_1,1,1 + x_1,4,2 <= 1
 c10_1,2,11: x_1,1,2 + x_1,2,1 <= 1
 c10_1,2,41: x_1,2,1 + x_1,4,2 <= 1
 c10_1,4,11: x_1,1,2 + x_1,4,1 <= 1
 c10_1,4,21: x_1,2,2 + x_1,4,1 <= 1
 c10_1,1,22: x_1,1,2 + x_1,2,3 <= 1
 c10_1,1,42: x_1,1,2 + x_1,4,3 <= 1
 c10_1,2,12: x_1,1,3 + x_1,2,2 <= 1
 c10_1,2,42: x_1,2,2 + x_1,4,3 <= 1
 c10_1,4,12: x_1,1,3 + x_1,4,2 <= 1
 c10_1,4,22: x_1,2,3 + x_1,4,2 <= 1
 c10_1,1,23: x_1,1,3 + x_1,2,4 <= 1
 c10_1,1,43: x_1,1,3 + x_1,4,4 <= 1
 c10_1,2,13: x_1,1,4 + x_1,2,3 <= 1
 c10_1,2,43: x_1,2,3 + x_1,4,4 <= 1
 c10_1,4,13: x_1,1,4 + x_1,4,3 <= 1
 c10_1,4,23: x_1,2,4 + x_1,4,3 <= 1
 c10_2,1,21: x_2,1,1 + x_2,2,2 <= 1
 c10_2,1,41: x_2,1,1 + x_2,4,2 <= 1
 c10_2,2,11: x_2,1,2 + x_2,2,1 <= 1
 c10_2,2,41: x_2,2,1 + x_2,4,2 <= 1
 c10_2,4,11: x_2,1,2 + x_2,4,1 <= 1
 c10_2,4,21: x_2,2,2 + x_2,4,1 <= 1
 c10_2,1,22: x_2,1,2 + x_2,2,3 <= 1
 c10_2,1,42: x_2,1,2 + x_2,4,3 <= 1
 c10_2,2,12: x_2,1,3 + x_2,2,2 <= 1
 c10_2,2,42: x_2,2,2 + x_2,4,3 <= 1
 c10_2,4,12: x_2,1,3 + x_2,4,2 <= 1
 c10_2,4,22: x_2,2,3 + x_2,4,2 <= 1
 c10_2,1,23: x_2,1,3 + x_2,2,4 <= 1
 c10_2,1,43: x_2,1,3 + x_2,4,4 <= 1
 c10_2,2,13: x_2,1,4 + x_2,2,3 <= 1
 c10_2,2,43: x_2,2,3 + x_2,4,4 <= 1
 c10_2,4,13: x_2,1,4 + x_2,4,3 <= 1
 c10_2,4,23: x_2,2,4 + x_2,4,3 <= 1
 c11_1,1: p_1,1,1 + p_2,1,1 <= 1
 c11_1,2: p_1,1,2 + p_2,1,2 <= 1
 c11_1,3: p_1,1,3 + p_2,1,3 <= 1
 c11_2,1: p_1,2,1 + p_2,2,1 <= 1
 c11_2,2: p_1,2,2 + p_2,2,2 <= 1
 c11_2,3: p_1,2,3 + p_2,2,3 <= 1
 c12_1,1,4,4,1: - 1.414213562373095 e_1,4,4,1 - 1.414213562373095 p_1,1,1
   >= -4.32842712474619
 c12_1,1,4,4,2: - 1.414213562373095 e_1,4,4,2 - 1.414213562373095 p_1,1,2
   >= -4.32842712474619
 c12_1,1,4,4,3: - 1.414213562373095 e_1,4,4,3 - 1.414213562373095 p_1,1,3
   >= -4.32842712474619
 c12_1,1,3,4,1: - 1.414213562373095 e_1,3,4,1 - 1.414213562373095 p_1,1,1
   >= -3.32842712474619
 c12_1,1,3,4,2: - 1.414213562373095 e_1,3,4,2 - 1.414213562373095 p_1,1,2
   >= -3.32842712474619
 c12_1,1,3,4,3: - 1.414213562373095 e_1,3,4,3 - 1.414213562373095 p_1,1,3
   >= -3.32842712474619
 c12_1,1,4,3,1: - 1.414213562373095 e_1,4,3,1 - 1.414213562373095 p_1,1,1
   >= -3.32842712474619
 c12_1,1,4,3,2: - 1.414213562373095 e_1,4,3,2 - 1.414213562373095 p_1,1,2
   >= -3.32842712474619
 c12_1,1,4,3,3: - 1.414213562373095 e_1,4,3,3 - 1.414213562373095 p_1,1,3
   >= -3.32842712474619
 c12_1,1,3,1,1: - 1.414213562373095 e_1,3,1,1 - 1.414213562373095 p_1,1,1
   >= -2.914213562373095
 c12_1,1,3,1,2: - 1.414213562373095 e_1,3,1,2 - 1.414213562373095 p_1,1,2
   >= -2.914213562373095
 c12_1,1,3,1,3: - 1.414213562373095 e_1,3,1,3 - 1.414213562373095 p_1,1,3
   >= -2.914213562373095
 c12_1,1,1,1,1: - 1.414213562373095 e_1,1,1,1 - 1.414213562373095 p_1,1,1
   >= -4.32842712474619
 c12_1,1,1,1,2: - 1.414213562373095 e_1,1,1,2 - 1.414213562373095 p_1,1,2
   >= -4.32842712474619
 c12_1,1,1,1,3: - 1.414213562373095 e_1,1,1,3 - 1.414213562373095 p_1,1,3
   >= -4.32842712474619
 c12_1,1,2,3,1: - 1.414213562373095 e_1,2,3,1 - 1.414213562373095 p_1,1,1
   >= -2.914213562373095
 c12_1,1,2,3,2: - 1.414213562373095 e_1,2,3,2 - 1.414213562373095 p_1,1,2
   >= -2.914213562373095
 c12_1,1,2,3,3: - 1.414213562373095 e_1,2,3,3 - 1.414213562373095 p_1,1,3
   >= -2.914213562373095
 c12_1,1,3,3,1: - 1.414213562373095 e_1,3,3,1 - 1.414213562373095 p_1,1,1
   >= -4.32842712474619
 c12_1,1,3,3,2: - 1.414213562373095 e_1,3,3,2 - 1.414213562373095 p_1,1,2
   >= -4.32842712474619
 c12_1,1,3,3,3: - 1.414213562373095 e_1,3,3,3 - 1.414213562373095 p_1,1,3
   >= -4.32842712474619
 c12_1,1,2,2,1: - 1.414213562373095 e_1,2,2,1 - 1.414213562373095 p_1,1,1
   >= -4.32842712474619
 c12_1,1,2,2,2: - 1.414213562373095 e_1,2,2,2 - 1.414213562373095 p_1,1,2
   >= -4.32842712474619
 c12_1,1,2,2,3: - 1.414213562373095 e_1,2,2,3 - 1.414213562373095 p_1,1,3
   >= -4.32842712474619
 c12_1,1,3,2,1: - 1.414213562373095 e_1,3,2,1 - 1.414213562373095 p_1,1,1
   >= -2.914213562373095
 c12_1,1,3,2,2: - 1.414213562373095 e_1,3,2,2 - 1.414213562373095 p_1,1,2
   >= -2.914213562373095
 c12_1,1,3,2,3: - 1.414213562373095 e_1,3,2,3 - 1.414213562373095 p_1,1,3
   >= -2.914213562373095
 c12_1,1,1,3,1: - 1.414213562373095 e_1,1,3,1 - 1.414213562373095 p_1,1,1
   >= -2.914213562373095
 c12_1,1,1,3,2: - 1.414213562373095 e_1,1,3,2 - 1.414213562373095 p_1,1,2
   >= -2.914213562373095
 c12_1,1,1,3,3: - 1.414213562373095 e_1,1,3,3 - 1.414213562373095 p_1,1,3
   >= -2.914213562373095
 c12_1,2,4,4,1: - 1.414213562373095 e_1,4,4,1 - 1.414213562373095 p_2,1,1
   >= -4.32842712474619
 c12_1,2,4,4,2: - 1.414213562373095 e_1,4,4,2 - 1.414213562373095 p_2,1,2
   >= -4.32842712474619
 c12_1,2,4,4,3: - 1.414213562373095 e_1,4,4,3 - 1.414213562373095 p_2,1,3
   >= -4.32842712474619
 c12_1,2,3,4,1: - 1.414213562373095 e_1,3,4,1 - 1.414213562373095 p_2,1,1
   >= -3.32842712474619
 c12_1,2,3,4,2: - 1.414213562373095 e_1,3,4,2 - 1.414213562373095 p_2,1,2
   >= -3.32842712474619
 c12_1,2,3,4,3: - 1.414213562373095 e_1,3,4,3 - 1.414213562373095 p_2,1,3
   >= -3.32842712474619
 c12_1,2,4,3,1: - 1.414213562373095 e_1,4,3,1 - 1.414213562373095 p_2,1,1
   >= -3.32842712474619
 c12_1,2,4,3,2: - 1.414213562373095 e_1,4,3,2 - 1.414213562373095 p_2,1,2
   >= -3.32842712474619
 c12_1,2,4,3,3: - 1.414213562373095 e_1,4,3,3 - 1.414213562373095 p_2,1,3
   >= -3.32842712474619
 c12_1,2,3,1,1: - 1.414213562373095 e_1,3,1,1 - 1.414213562373095 p_2,1,1
   >= -2.914213562373095
 c12_1,2,3,1,2: - 1.414213562373095 e_1,3,1,2 - 1.414213562373095 p_2,1,2
   >= -2.914213562373095
 c12_1,2,3,1,3: - 1.414213562373095 e_1,3,1,3 - 1.414213562373095 p_2,1,3
   >= -2.914213562373095
 c12_1,2,1,1,1: - 1.414213562373095 e_1,1,1,1 - 1.414213562373095 p_2,1,1
   >= -4.32842712474619
 c12_1,2,1,1,2: - 1.414213562373095 e_1,1,1,2 - 1.414213562373095 p_2,1,2
   >= -4.32842712474619
 c12_1,2,1,1,3: - 1.414213562373095 e_1,1,1,3 - 1.414213562373095 p_2,1,3
   >= -4.32842712474619
 c12_1,2,2,3,1: - 1.414213562373095 e_1,2,3,1 - 1.414213562373095 p_2,1,1
   >= -2.914213562373095
 c12_1,2,2,3,2: - 1.414213562373095 e_1,2,3,2 - 1.414213562373095 p_2,1,2
   >= -2.914213562373095
 c12_1,2,2,3,3: - 1.414213562373095 e_1,2,3,3 - 1.414213562373095 p_2,1,3
   >= -2.914213562373095
 c12_1,2,3,3,1: - 1.414213562373095 e_1,3,3,1 - 1.414213562373095 p_2,1,1
   >= -4.32842712474619
 c12_1,2,3,3,2: - 1.414213562373095 e_1,3,3,2 - 1.414213562373095 p_2,1,2
   >= -4.32842712474619
 c12_1,2,3,3,3: - 1.414213562373095 e_1,3,3,3 - 1.414213562373095 p_2,1,3
   >= -4.32842712474619
 c12_1,2,2,2,1: - 1.414213562373095 e_1,2,2,1 - 1.414213562373095 p_2,1,1
   >= -4.32842712474619
 c12_1,2,2,2,2: - 1.414213562373095 e_1,2,2,2 - 1.414213562373095 p_2,1,2
   >= -4.32842712474619
 c12_1,2,2,2,3: - 1.414213562373095 e_1,2,2,3 - 1.414213562373095 p_2,1,3
   >= -4.32842712474619
 c12_1,2,3,2,1: - 1.414213562373095 e_1,3,2,1 - 1.414213562373095 p_2,1,1
   >= -2.914213562373095
 c12_1,2,3,2,2: - 1.414213562373095 e_1,3,2,2 - 1.414213562373095 p_2,1,2
   >= -2.914213562373095
 c12_1,2,3,2,3: - 1.414213562373095 e_1,3,2,3 - 1.414213562373095 p_2,1,3
   >= -2.914213562373095
 c12_1,2,1,3,1: - 1.414213562373095 e_1,1,3,1 - 1.414213562373095 p_2,1,1
   >= -2.914213562373095
 c12_1,2,1,3,2: - 1.414213562373095 e_1,1,3,2 - 1.414213562373095 p_2,1,2
   >= -2.914213562373095
 c12_1,2,1,3,3: - 1.414213562373095 e_1,1,3,3 - 1.414213562373095 p_2,1,3
   >= -2.914213562373095
 c12_2,1,4,4,1: - 1.414213562373095 e_2,4,4,1 - 1.414213562373095 p_1,2,1
   >= -4.32842712474619
 c12_2,1,4,4,2: - 1.414213562373095 e_2,4,4,2 - 1.414213562373095 p_1,2,2
   >= -4.32842712474619
 c12_2,1,4,4,3: - 1.414213562373095 e_2,4,4,3 - 1.414213562373095 p_1,2,3
   >= -4.32842712474619
 c12_2,1,3,4,1: - 1.414213562373095 e_2,3,4,1 - 1.414213562373095 p_1,2,1
   >= -3.32842712474619
 c12_2,1,3,4,2: - 1.414213562373095 e_2,3,4,2 - 1.414213562373095 p_1,2,2
   >= -3.32842712474619
 c12_2,1,3,4,3: - 1.414213562373095 e_2,3,4,3 - 1.414213562373095 p_1,2,3
   >= -3.32842712474619
 c12_2,1,4,3,1: - 1.414213562373095 e_2,4,3,1 - 1.414213562373095 p_1,2,1
   >= -3.32842712474619
 c12_2,1,4,3,2: - 1.414213562373095 e_2,4,3,2 - 1.414213562373095 p_1,2,2
   >= -3.32842712474619
 c12_2,1,4,3,3: - 1.414213562373095 e_2,4,3,3 - 1.414213562373095 p_1,2,3
   >= -3.32842712474619
 c12_2,1,3,1,1: - 1.414213562373095 e_2,3,1,1 - 1.414213562373095 p_1,2,1
   >= -2.914213562373095
 c12_2,1,3,1,2: - 1.414213562373095 e_2,3,1,2 - 1.414213562373095 p_1,2,2
   >= -2.914213562373095
 c12_2,1,3,1,3: - 1.414213562373095 e_2,3,1,3 - 1.414213562373095 p_1,2,3
   >= -2.914213562373095
 c12_2,1,1,1,1: - 1.414213562373095 e_2,1,1,1 - 1.414213562373095 p_1,2,1
   >= -4.32842712474619
 c12_2,1,1,1,2: - 1.414213562373095 e_2,1,1,2 - 1.414213562373095 p_1,2,2
   >= -4.32842712474619
 c12_2,1,1,1,3: - 1.414213562373095 e_2,1,1,3 - 1.414213562373095 p_1,2,3
   >= -4.32842712474619
 c12_2,1,2,3,1: - 1.414213562373095 e_2,2,3,1 - 1.414213562373095 p_1,2,1
   >= -2.914213562373095
 c12_2,1,2,3,2: - 1.414213562373095 e_2,2,3,2 - 1.414213562373095 p_1,2,2
   >= -2.914213562373095
 c12_2,1,2,3,3: - 1.414213562373095 e_2,2,3,3 - 1.414213562373095 p_1,2,3
   >= -2.914213562373095
 c12_2,1,3,3,1: - 1.414213562373095 e_2,3,3,1 - 1.414213562373095 p_1,2,1
   >= -4.32842712474619
 c12_2,1,3,3,2: - 1.414213562373095 e_2,3,3,2 - 1.414213562373095 p_1,2,2
   >= -4.32842712474619
 c12_2,1,3,3,3: - 1.414213562373095 e_2,3,3,3 - 1.414213562373095 p_1,2,3
   >= -4.32842712474619
 c12_2,1,2,2,1: - 1.414213562373095 e_2,2,2,1 - 1.414213562373095 p_1,2,1
   >= -4.32842712474619
 c12_2,1,2,2,2: - 1.414213562373095 e_2,2,2,2 - 1.414213562373095 p_1,2,2
   >= -4.32842712474619
 c12_2,1,2,2,3: - 1.414213562373095 e_2,2,2,3 - 1.414213562373095 p_1,2,3
   >= -4.32842712474619
 c12_2,1,3,2,1: - 1.414213562373095 e_2,3,2,1 - 1.414213562373095 p_1,2,1
   >= -2.914213562373095
 c12_2,1,3,2,2: - 1.414213562373095 e_2,3,2,2 - 1.414213562373095 p_1,2,2
   >= -2.914213562373095
 c12_2,1,3,2,3: - 1.414213562373095 e_2,3,2,3 - 1.414213562373095 p_1,2,3
   >= -2.914213562373095
 c12_2,1,1,3,1: - 1.414213562373095 e_2,1,3,1 - 1.414213562373095 p_1,2,1
   >= -2.914213562373095
 c12_2,1,1,3,2: - 1.414213562373095 e_2,1,3,2 - 1.414213562373095 p_1,2,2
   >= -2.914213562373095
 c12_2,1,1,3,3: - 1.414213562373095 e_2,1,3,3 - 1.414213562373095 p_1,2,3
   >= -2.914213562373095
 c12_2,2,4,4,1: - 1.414213562373095 e_2,4,4,1 - 1.414213562373095 p_2,2,1
   >= -4.32842712474619
 c12_2,2,4,4,2: - 1.414213562373095 e_2,4,4,2 - 1.414213562373095 p_2,2,2
   >= -4.32842712474619
 c12_2,2,4,4,3: - 1.414213562373095 e_2,4,4,3 - 1.414213562373095 p_2,2,3
   >= -4.32842712474619
 c12_2,2,3,4,1: - 1.414213562373095 e_2,3,4,1 - 1.414213562373095 p_2,2,1
   >= -3.32842712474619
 c12_2,2,3,4,2: - 1.414213562373095 e_2,3,4,2 - 1.414213562373095 p_2,2,2
   >= -3.32842712474619
 c12_2,2,3,4,3: - 1.414213562373095 e_2,3,4,3 - 1.414213562373095 p_2,2,3
   >= -3.32842712474619
 c12_2,2,4,3,1: - 1.414213562373095 e_2,4,3,1 - 1.414213562373095 p_2,2,1
   >= -3.32842712474619
 c12_2,2,4,3,2: - 1.414213562373095 e_2,4,3,2 - 1.414213562373095 p_2,2,2
   >= -3.32842712474619
 c12_2,2,4,3,3: - 1.414213562373095 e_2,4,3,3 - 1.414213562373095 p_2,2,3
   >= -3.32842712474619
 c12_2,2,3,1,1: - 1.414213562373095 e_2,3,1,1 - 1.414213562373095 p_2,2,1
   >= -2.914213562373095
 c12_2,2,3,1,2: - 1.414213562373095 e_2,3,1,2 - 1.414213562373095 p_2,2,2
   >= -2.914213562373095
 c12_2,2,3,1,3: - 1.414213562373095 e_2,3,1,3 - 1.414213562373095 p_2,2,3
   >= -2.914213562373095
 c12_2,2,1,1,1: - 1.414213562373095 e_2,1,1,1 - 1.414213562373095 p_2,2,1
   >= -4.32842712474619
 c12_2,2,1,1,2: - 1.414213562373095 e_2,1,1,2 - 1.414213562373095 p_2,2,2
   >= -4.32842712474619
 c12_2,2,1,1,3: - 1.414213562373095 e_2,1,1,3 - 1.414213562373095 p_2,2,3
   >= -4.32842712474619
 c12_2,2,2,3,1: - 1.414213562373095 e_2,2,3,1 - 1.414213562373095 p_2,2,1
   >= -2.914213562373095
 c12_2,2,2,3,2: - 1.414213562373095 e_2,2,3,2 - 1.414213562373095 p_2,2,2
   >= -2.914213562373095
 c12_2,2,2,3,3: - 1.414213562373095 e_2,2,3,3 - 1.414213562373095 p_2,2,3
   >= -2.914213562373095
 c12_2,2,3,3,1: - 1.414213562373095 e_2,3,3,1 - 1.414213562373095 p_2,2,1
   >= -4.32842712474619
 c12_2,2,3,3,2: - 1.414213562373095 e_2,3,3,2 - 1.414213562373095 p_2,2,2
   >= -4.32842712474619
 c12_2,2,3,3,3: - 1.414213562373095 e_2,3,3,3 - 1.414213562373095 p_2,2,3
   >= -4.32842712474619
 c12_2,2,2,2,1: - 1.414213562373095 e_2,2,2,1 - 1.414213562373095 p_2,2,1
   >= -4.32842712474619
 c12_2,2,2,2,2: - 1.414213562373095 e_2,2,2,2 - 1.414213562373095 p_2,2,2
   >= -4.32842712474619
 c12_2,2,2,2,3: - 1.414213562373095 e_2,2,2,3 - 1.414213562373095 p_2,2,3
   >= -4.32842712474619
 c12_2,2,3,2,1: - 1.414213562373095 e_2,3,2,1 - 1.414213562373095 p_2,2,1
   >= -2.914213562373095
 c12_2,2,3,2,2: - 1.414213562373095 e_2,3,2,2 - 1.414213562373095 p_2,2,2
   >= -2.914213562373095
 c12_2,2,3,2,3: - 1.414213562373095 e_2,3,2,3 - 1.414213562373095 p_2,2,3
   >= -2.914213562373095
 c12_2,2,1,3,1: - 1.414213562373095 e_2,1,3,1 - 1.414213562373095 p_2,2,1
   >= -2.914213562373095
 c12_2,2,1,3,2: - 1.414213562373095 e_2,1,3,2 - 1.414213562373095 p_2,2,2
   >= -2.914213562373095
 c12_2,2,1,3,3: - 1.414213562373095 e_2,1,3,3 - 1.414213562373095 p_2,2,3
   >= -2.914213562373095
 c13_1,1: e_1,3,1,1 + e_1,1,1,1 + e_2,3,1,1 + e_2,1,1,1 <= 1
 c13_1,2: e_1,3,1,2 + e_1,1,1,2 + e_2,3,1,2 + e_2,1,1,2 <= 1
 c13_1,3: e_1,3,1,3 + e_1,1,1,3 + e_2,3,1,3 + e_2,1,1,3 <= 1
 c13_2,1: e_1,2,2,1 + e_1,3,2,1 + e_2,2,2,1 + e_2,3,2,1 <= 1
 c13_2,2: e_1,2,2,2 + e_1,3,2,2 + e_2,2,2,2 + e_2,3,2,2 <= 1
 c13_2,3: e_1,2,2,3 + e_1,3,2,3 + e_2,2,2,3 + e_2,3,2,3 <= 1
 c13_3,1: e_1,4,3,1 + e_1,2,3,1 + e_1,3,3,1 + e_1,1,3,1 + e_2,4,3,1
   + e_2,2,3,1 + e_2,3,3,1 + e_2,1,3,1 <= 1
 c13_3,2: e_1,4,3,2 + e_1,2,3,2 + e_1,3,3,2 + e_1,1,3,2 + e_2,4,3,2
   + e_2,2,3,2 + e_2,3,3,2 + e_2,1,3,2 <= 1
 c13_3,3: e_1,4,3,3 + e_1,2,3,3 + e_1,3,3,3 + e_1,1,3,3 + e_2,4,3,3
   + e_2,2,3,3 + e_2,3,3,3 + e_2,1,3,3 <= 1
 c13_4,1: e_1,4,4,1 + e_1,3,4,1 + e_2,4,4,1 + e_2,3,4,1 <= 2
 c13_4,2: e_1,4,4,2 + e_1,3,4,2 + e_2,4,4,2 + e_2,3,4,2 <= 2
 c13_4,3: e_1,4,4,3 + e_1,3,4,3 + e_2,4,4,3 + e_2,3,4,3 <= 2
Bounds
Binaries
 delta_1 delta_2 delta_3 delta_4 e_1,4,4,1 e_1,4,4,2 e_1,4,4,3 e_1,3,4,1
 e_1,3,4,2 e_1,3,4,3 e_1,4,3,1 e_1,4,3,2 e_1,4,3,3 e_1,3,1,1 e_1,3,1,2
 e_1,3,1,3 e_1,1,1,1 e_1,1,1,2 e_1,1,1,3 e_1,2,3,1 e_1,2,3,2 e_1,2,3,3
 e_1,3,3,1 e_1,3,3,2 e_1,3,3,3 e_1,2,2,1 e_1,2,2,2 e_1,2,2,3 e_1,3,2,1
 e_1,3,2,2 e_1,3,2,3 e_1,1,3,1 e_1,1,3,2 e_1,1,3,3 e_2,4,4,1 e_2,4,4,2
 e_2,4,4,3 e_2,3,4,1 e_2,3,4,2 e_2,3,4,3 e_2,4,3,1 e_2,4,3,2 e_2,4,3,3
 e_2,3,1,1 e_2,3,1,2 e_2,3,1,3 e_2,1,1,1 e_2,1,1,2 e_2,1,1,3 e_2,2,3,1
 e_2,2,3,2 e_2,2,3,3 e_2,3,3,1 e_2,3,3,2 e_2,3,3,3 e_2,2,2,1 e_2,2,2,2
 e_2,2,2,3 e_2,3,2,1 e_2,3,2,2 e_2,3,2,3 e_2,1,3,1 e_2,1,3,2 e_2,1,3,3
 x_1,1,1 x_1,1,2 x_1,1,3 x_1,1,4 x_1,2,1 x_1,2,2 x_1,2,3 x_1,2,4 x_1,3,1
 x_1,3,2 x_1,3,3 x_1,3,4 x_1,4,1 x_1,4,2 x_1,4,3 x_1,4,4 x_2,1,1 x_2,1,2
 x_2,1,3 x_2,1,4 x_2,2,1 x_2,2,2 x_2,2,3 x_2,2,4 x_2,3,1 x_2,3,2 x_2,3,3
 x_2,3,4 x_2,4,1 x_2,4,2 x_2,4,3 x_2,4,4 p_1,1,1 p_1,1,2 p_1,1,3 p_1,2,1
 p_1,2,2 p_1,2,3 p_2,1,1 p_2,1,2 p_2,1,3 p_2,2,1 p_2,2,2 p_2,2,3
End
